C1Ti2                                   
   1.00000000000000     
     8.9726435179076418    0.0000040394680430    0.0000000000000000
    -4.4863182572667659    7.7705527851474381    0.0000000000000000
    -0.0000000000000001    0.0000000000000001   21.8141327872678232
   N    Nb   O    O    Co
     9    18    17     1     1
Direct
  0.0003482810801766  0.0005194885572906  0.5001988776309504
  0.0000092521320585  0.3333373232075200  0.5001511497029321
  0.0003494489256283  0.6664974934654890  0.5001988612247116
  0.3333408233160197  0.0000031039059803  0.5000933911899723
  0.3328354663315434  0.3330060201950367  0.5001964586833686
  0.3328348627066842  0.6664982490351327  0.5001966248530906
  0.6668596317559408  0.0005182183069322  0.5001978119422910
  0.6668598781389889  0.3330097823967030  0.5001975114442463
  0.6666838489613197  0.6666785943782026  0.4993660026437506
  0.1109782503130887  0.2223833039744195  0.5644149063520175
  0.1109774871455102  0.5552594896939914  0.5644148279820379
  0.1107822673661419  0.8887249522606708  0.5645723805274458
  0.4446244902637783  0.2225458602679824  0.5645676054329880
  0.4448096387208548  0.5557373684540198  0.5640910275730260
  0.4446263442910158  0.8887448370679591  0.5645678001796416
  0.7780743206747990  0.2223701737208915  0.5644163040688127
  0.7776122302993200  0.5557532835665752  0.5640936154751400
  0.7776106081519659  0.8885210058547572  0.5640935420352289
  0.2226658657316023  0.1106987876156455  0.4359865003537224
  0.2222807595061804  0.4444769896592995  0.4361911822674387
  0.2226640002252665  0.7786340377897167  0.4359847509583863
  0.5547134331632833  0.1106925757590305  0.4359899542947737
  0.5535889739564520  0.4404688309084541  0.4370159913590063
  0.5535871670720544  0.7797956809539290  0.4370106826696344
  0.8888799932138147  0.1110614605424233  0.4361870593414187
  0.8888819225783796  0.4444891007423087  0.4361896260799389
  0.8928975555668004  0.7797854643574167  0.4370063697677942
  0.0000037343197261  0.0005531608100116  0.6179262633862892
  0.0000036766577301  0.3333340252188528  0.6178878337528676
  0.0000044903348655  0.6661196462852208  0.6179259898654275
  0.3333410887235569  0.0000030131342867  0.6181335147808708
  0.3328160816327270  0.3333500736597348  0.6179225290266135
  0.3328151193909143  0.6661323412350720  0.6179223940612993
  0.6672215084693697  0.0005368194749837  0.6179237736813002
  0.6672190825016596  0.3333513005783182  0.6179236607623402
  0.6666683917435365  0.6666679396527780  0.6176507290349672
  0.9990049067550526  0.9993132491501783  0.3819160642847297
  0.0000133945990701  0.3333411321097947  0.3822778175941790
  0.9989915568141605  0.6663477974804897  0.3819117968814225
  0.3333512532885036  0.0000102229553260  0.3818219620027909
  0.3340665589125882  0.3343966102478549  0.3819083240682289
  0.3340603547697647  0.6663369514787434  0.3819085525875983
  0.6669972957450168 -0.0006815188354920  0.3819177487826782
  0.6670077075356078  0.3343654973139232  0.3819131168875243
  0.6667352492348567  0.6667250036507649  0.3790712969266664
  0.6656117469826214  0.6655452577613769  0.2965460855984692
 
  0.00000000E+00  0.00000000E+00  0.00000000E+00
  0.00000000E+00  0.00000000E+00  0.00000000E+00
  0.00000000E+00  0.00000000E+00  0.00000000E+00
  0.00000000E+00  0.00000000E+00  0.00000000E+00
  0.00000000E+00  0.00000000E+00  0.00000000E+00
  0.00000000E+00  0.00000000E+00  0.00000000E+00
  0.00000000E+00  0.00000000E+00  0.00000000E+00
  0.00000000E+00  0.00000000E+00  0.00000000E+00
  0.00000000E+00  0.00000000E+00  0.00000000E+00
  0.00000000E+00  0.00000000E+00  0.00000000E+00
  0.00000000E+00  0.00000000E+00  0.00000000E+00
  0.00000000E+00  0.00000000E+00  0.00000000E+00
  0.00000000E+00  0.00000000E+00  0.00000000E+00
  0.00000000E+00  0.00000000E+00  0.00000000E+00
  0.00000000E+00  0.00000000E+00  0.00000000E+00
  0.00000000E+00  0.00000000E+00  0.00000000E+00
  0.00000000E+00  0.00000000E+00  0.00000000E+00
  0.00000000E+00  0.00000000E+00  0.00000000E+00
  0.00000000E+00  0.00000000E+00  0.00000000E+00
  0.00000000E+00  0.00000000E+00  0.00000000E+00
  0.00000000E+00  0.00000000E+00  0.00000000E+00
  0.00000000E+00  0.00000000E+00  0.00000000E+00
  0.00000000E+00  0.00000000E+00  0.00000000E+00
  0.00000000E+00  0.00000000E+00  0.00000000E+00
  0.00000000E+00  0.00000000E+00  0.00000000E+00
  0.00000000E+00  0.00000000E+00  0.00000000E+00
  0.00000000E+00  0.00000000E+00  0.00000000E+00
  0.00000000E+00  0.00000000E+00  0.00000000E+00
  0.00000000E+00  0.00000000E+00  0.00000000E+00
  0.00000000E+00  0.00000000E+00  0.00000000E+00
  0.00000000E+00  0.00000000E+00  0.00000000E+00
  0.00000000E+00  0.00000000E+00  0.00000000E+00
  0.00000000E+00  0.00000000E+00  0.00000000E+00
  0.00000000E+00  0.00000000E+00  0.00000000E+00
  0.00000000E+00  0.00000000E+00  0.00000000E+00
  0.00000000E+00  0.00000000E+00  0.00000000E+00
  0.00000000E+00  0.00000000E+00  0.00000000E+00
  0.00000000E+00  0.00000000E+00  0.00000000E+00
  0.00000000E+00  0.00000000E+00  0.00000000E+00
  0.00000000E+00  0.00000000E+00  0.00000000E+00
  0.00000000E+00  0.00000000E+00  0.00000000E+00
  0.00000000E+00  0.00000000E+00  0.00000000E+00
  0.00000000E+00  0.00000000E+00  0.00000000E+00
  0.00000000E+00  0.00000000E+00  0.00000000E+00
  0.00000000E+00  0.00000000E+00  0.00000000E+00
  0.00000000E+00  0.00000000E+00  0.00000000E+00
