C1Ti2                                   
   1.00000000000000     
     8.9863532285159078    0.0000000000000000    0.0000000000000000
    -4.4931766142579539    7.7824298280149860    0.0000000000000000
    -0.0000000000000001    0.0000000000000001   21.8141327872678232
   N    Nb   O    O    Co 
     9    18    17     1    1
Direct
 -0.0000000187471833  0.0000000300103736  0.4999988445515248
  0.9999999229676864  0.3333332902591760  0.4999988449439615
 -0.0000000126561949  0.6666666300573674  0.4999988462899866
  0.3333333087941320 -0.0000000172454281  0.4999988462513572
  0.3333332392174039  0.3333332675819189  0.4999988448322067
  0.3333332650109666  0.6666666438092133  0.4999988435772132
  0.6666667458460641  0.0000000925214052  0.4999988387161881
  0.6666667492075643  0.3333333116737511  0.4999988458560582
  0.6666667316683804  0.6666667062883102  0.4999988375593256
  0.1111114252181924  0.2222228316289998  0.5639687549257737
  0.1111113423957050  0.5555558848714798  0.5639687580143823
  0.1111110731693492  0.8888892262693714  0.5639687671501112
  0.4444437846209519  0.2222225622501558  0.5639688655775208
  0.4444438337432671  0.5555555303586234  0.5639687856384769
  0.4444437685546165  0.8888886217182567  0.5639688681627815
  0.7777786569493215  0.2222230619649703  0.5639689376847524
  0.7777783904144162  0.5555563818811314  0.5639688552551849
  0.7777784341694580  0.8888893196067729  0.5639688731670124
  0.2222216956115458  0.1111107236640971  0.4360319181629231
  0.2222219470593346  0.4444439221357551  0.4360319857027863
  0.2222216277602863  0.7777769519753446  0.4360319058790250
  0.5555551562340316  0.1111106538094258  0.4360317640491884
  0.5555550725413956  0.4444441361020972  0.4360318645496534
  0.5555550487977686  0.7777768426785887  0.4360318436989638
  0.8888897641561945  0.1111111507788014  0.4360318574815419
  0.8888896806125844  0.4444446017701733  0.4360318836243118
  0.8888893921860638  0.7777776420531405  0.4360318955089634
 -0.0000003479817496  0.9999997888662207  0.6173455996330303
  0.9999993000359383  0.3333327645834712  0.6173456001860297
  0.9999997504025259  0.6666663298827253  0.6173456069743567
  0.3333341216070390  0.0000001661451198  0.6173454127374407
  0.3333338340826021  0.3333332326926837  0.6173455385287693
  0.3333338840011190  0.6666670421857628  0.6173454997165962
  0.6666662796971743  0.9999999398208403  0.6173451736454399
  0.6666662470395629  0.3333326169775774  0.6173452088658606
  0.6666663679577148  0.6666664713886423  0.6173453198469002
 -0.0000006554754801 -0.0000002000760213  0.3826549150151804
 -0.0000009497956121  0.3333329924701946  0.3826548823118447
 -0.0000005584938471  0.6666665633068150  0.3826549202612042
  0.3333340820872058  0.0000004681637206  0.3826550676277717
  0.3333338963809099  0.3333335150275410  0.3826548984716410
  0.3333339520445924  0.6666674552914906  0.3826549416635732
  0.6666668402426451  0.0000004663590496  0.3826552940467811
  0.6666668563931273  0.3333332838158266  0.3826552631973004
  0.6666670742712296  0.6666671026250675  0.3826551504591273
  0.66631    0.66596    0.3
