C1Ti2                                   
   1.00000000000000     
     9.0317878586581379    0.0000000000000000    0.0000000000000000
    -4.5158939293290690    7.8267655582554783    0.0000000000000000
    -0.0000000000000001    0.0000000000000001   21.8141327872678232
   C    Ti   O    B    Au   O    H 
     9    18    17     1     1     1     1
Direct
  0.3318090023417355  0.9969513087185931  0.5014508703955869
  0.3316023413057181  0.3299868221999418  0.5013806021370684
  0.3327741902271271  0.6643087138399864  0.5010399922234896
  0.6654845837107928  0.9961365190807712  0.5015211641936546
  0.6650510958855591  0.3299869142683036  0.5013806033671813
  0.6659536909229828  0.6652407424939781  0.5006452013159119
  0.9973186377898529  0.9961365330583263  0.5015211451262829
  0.9992254679084311  0.3317844019987248  0.5014782322545344
  0.9982011164897244  0.6643088210142736  0.5010399620680914
  0.1105311597616918  0.2194338306197281  0.5621607993633688
  0.1098248320609656  0.5529831025131600  0.5602015323098968
  0.1102918952326561  0.8873047360459196  0.5619325435502773
  0.4434825284842532  0.2202983002155605  0.5599387326328014
  0.4439216109662922  0.5530175105310207  0.5613537775806492
  0.4436792998544803  0.8873046289071667  0.5619325175589367
  0.7755695092265071  0.2194339137033410  0.5621607355160521
  0.7757624586291101  0.5530178298972857  0.5613537709841836
  0.7763765280470665  0.8860864181548749  0.5604569792727006
  0.2203456512253226  0.1079856909110006  0.4419762579099498
  0.2193057411640851  0.4388395737084565  0.4403943215571644
  0.2215446138141672  0.7764230507005223  0.4406388679049655
  0.5543065384163270  0.1079853950849170  0.4419761264889885
  0.5542507594075516  0.4418345927202267  0.4413706969626645
  0.5424130908347493  0.7691835543172871  0.4448734348779837
  0.8912246775344741  0.1157825677778419  0.4466422822465006
  0.8862004721400112  0.4388394325692033  0.4403943107535824
  0.8934368502819297  0.7691836953717583  0.4448733909161575
  0.2206783369485450  0.1082438727470603  0.6035264000981826
  0.2205955184679524  0.4422111355245590  0.6031541759823753
  0.2204540002160442  0.7742417009963631  0.6031859002412645
  0.5542320805346321  0.1082438631480471  0.6035263812294716
  0.5541617037116922  0.4416570879975765  0.6032054032527441
  0.5534817526420710  0.7741443135701118  0.6036196249444927
  0.8877982177619899  0.1089296950936216  0.6036870113354240
  0.8882820507103304  0.4422113351028187  0.6031541767652371
  0.8873290994591159  0.7741445385292067  0.6036196803822449
  0.1082180331955627  0.2177035395760427  0.3993250566444289
  0.1094543654998148  0.5522418159723443  0.3989064130788833
  0.1092936360730903  0.8856494421973338  0.3992825959730979
  0.4429688110923280  0.2192707853770770  0.3997188247522558
  0.4418793590174843  0.5519461455905628  0.3995598634227235
  0.4430223389104029  0.8856492374378888  0.3992825500444823
  0.7761524707373511  0.2177038839219207  0.3993249776180008
  0.7767333103516165  0.5519457275516899  0.3995598753007812
  0.7817045175802306  0.8967425482424360  0.3693949062017410
  0.7445800420348405  0.8224966212186331  0.2876911095268753
  0.7163638702143444  0.7660642775776338  0.1993487839456165
  0.7640883975142856  0.8615133321775232  0.1707171677908761
 
  0.00000000E+00  0.00000000E+00  0.00000000E+00
  0.00000000E+00  0.00000000E+00  0.00000000E+00
  0.00000000E+00  0.00000000E+00  0.00000000E+00
  0.00000000E+00  0.00000000E+00  0.00000000E+00
  0.00000000E+00  0.00000000E+00  0.00000000E+00
  0.00000000E+00  0.00000000E+00  0.00000000E+00
  0.00000000E+00  0.00000000E+00  0.00000000E+00
  0.00000000E+00  0.00000000E+00  0.00000000E+00
  0.00000000E+00  0.00000000E+00  0.00000000E+00
  0.00000000E+00  0.00000000E+00  0.00000000E+00
  0.00000000E+00  0.00000000E+00  0.00000000E+00
  0.00000000E+00  0.00000000E+00  0.00000000E+00
  0.00000000E+00  0.00000000E+00  0.00000000E+00
  0.00000000E+00  0.00000000E+00  0.00000000E+00
  0.00000000E+00  0.00000000E+00  0.00000000E+00
  0.00000000E+00  0.00000000E+00  0.00000000E+00
  0.00000000E+00  0.00000000E+00  0.00000000E+00
  0.00000000E+00  0.00000000E+00  0.00000000E+00
  0.00000000E+00  0.00000000E+00  0.00000000E+00
  0.00000000E+00  0.00000000E+00  0.00000000E+00
  0.00000000E+00  0.00000000E+00  0.00000000E+00
  0.00000000E+00  0.00000000E+00  0.00000000E+00
  0.00000000E+00  0.00000000E+00  0.00000000E+00
  0.00000000E+00  0.00000000E+00  0.00000000E+00
  0.00000000E+00  0.00000000E+00  0.00000000E+00
  0.00000000E+00  0.00000000E+00  0.00000000E+00
  0.00000000E+00  0.00000000E+00  0.00000000E+00
  0.00000000E+00  0.00000000E+00  0.00000000E+00
  0.00000000E+00  0.00000000E+00  0.00000000E+00
  0.00000000E+00  0.00000000E+00  0.00000000E+00
  0.00000000E+00  0.00000000E+00  0.00000000E+00
  0.00000000E+00  0.00000000E+00  0.00000000E+00
  0.00000000E+00  0.00000000E+00  0.00000000E+00
  0.00000000E+00  0.00000000E+00  0.00000000E+00
  0.00000000E+00  0.00000000E+00  0.00000000E+00
  0.00000000E+00  0.00000000E+00  0.00000000E+00
  0.00000000E+00  0.00000000E+00  0.00000000E+00
  0.00000000E+00  0.00000000E+00  0.00000000E+00
  0.00000000E+00  0.00000000E+00  0.00000000E+00
  0.00000000E+00  0.00000000E+00  0.00000000E+00
  0.00000000E+00  0.00000000E+00  0.00000000E+00
  0.00000000E+00  0.00000000E+00  0.00000000E+00
  0.00000000E+00  0.00000000E+00  0.00000000E+00
  0.00000000E+00  0.00000000E+00  0.00000000E+00
  0.00000000E+00  0.00000000E+00  0.00000000E+00
  0.00000000E+00  0.00000000E+00  0.00000000E+00
  0.00000000E+00  0.00000000E+00  0.00000000E+00
  0.00000000E+00  0.00000000E+00  0.00000000E+00
