C1Ti2                                   
   1.00000000000000     
     9.0317878586581379    0.0000000000000000    0.0000000000000000
    -4.5158939293290690    7.8267655582554783    0.0000000000000000
    -0.0000000000000001    0.0000000000000001   21.8141327872678232
   C    Ti   O    B    Au   O    H 
     9    18    17     1     1     1     1
Direct
  0.3318090023417362  0.9969513087185945  0.5014508703955903
  0.3316023413057156  0.3299868221999431  0.5013806021370717
  0.3327741902271280  0.6643087138399847  0.5010399922234895
  0.6654845837107960  0.9961365190807715  0.5015211641936574
  0.6650510958855622  0.3299869142683050  0.5013806033671846
  0.6659536909229863  0.6652407424939787  0.5006452013159114
  0.9973186377898503  0.9961365330583266  0.5015211451262858
  0.9992254679084304  0.3317844019987234  0.5014782322545361
  0.9982011164897223  0.6643088210142719  0.5010399620680913
  0.1105311597616907  0.2194338306197259  0.5621607993633705
  0.1098248320609635  0.5529831025131632  0.5602015323098989
  0.1102918952326538  0.8873047360459199  0.5619325435502749
  0.4434825284842567  0.2202983002155610  0.5599387326327978
  0.4439216109662948  0.5530175105310192  0.5613537775806506
  0.4436792998544827  0.8873046289071669  0.5619325175589343
  0.7755695092265052  0.2194339137033388  0.5621607355160537
  0.7757624586291135  0.5530178298972842  0.5613537709841850
  0.7763765280470671  0.8860864181548755  0.5604569792727003
  0.2203456512253245  0.1079856909110029  0.4419762579099469
  0.2193057411640835  0.4388395737084578  0.4403943215571619
  0.2215446138141661  0.7764230507005206  0.4406388679049643
  0.5543065384163274  0.1079853950849193  0.4419761264889857
  0.5542507594075509  0.4418345927202245  0.4413706969626620
  0.5424130908347524  0.7691835543172891  0.4448734348779826
  0.8912246775344713  0.1157825677778451  0.4466422822465038
  0.8862004721400137  0.4388394325692046  0.4403943107535799
  0.8934368502819284  0.7691836953717603  0.4448733909161565
  0.2206783369485423  0.1082438727470579  0.6035264000981804
  0.2205955184679504  0.4422111355245601  0.6031541759823766
  0.2204540002160427  0.7742417009963599  0.6031859002412628
  0.5542320805346322  0.1082438631480448  0.6035263812294693
  0.5541617037116928  0.4416570879975782  0.6032054032527422
  0.5534817526420740  0.7741443135701106  0.6036196249444929
  0.8877982177619904  0.1089296950936228  0.6036870113354206
  0.8882820507103270  0.4422113351028198  0.6031541767652384
  0.8873290994591184  0.7741445385292055  0.6036196803822451
  0.1082180331955598  0.2177035395760398  0.3993250566444267
  0.1094543654998179  0.5522418159723436  0.3989064130788821
  0.1092936360730893  0.8856494421973318  0.3992825959731010
  0.4429688110923292  0.2192707853770796  0.3997188247522562
  0.4418793590174814  0.5519461455905635  0.3995598634227203
  0.4430223389104017  0.8856492374378868  0.3992825500444854
  0.7761524707373513  0.2177038839219179  0.3993249776179987
  0.7767333103516132  0.5519457275516907  0.3995598753007779
  0.7817045175802306  0.8967425482424375  0.3693949062017375
  0.7445800420348413  0.8224966212186346  0.2876911095268718
  0.7163638702143423  0.7660642775776370  0.1993487839456139
  0.7640883975142846  0.8615133321775211  0.1707171677908788
 
  0.00000000E+00  0.00000000E+00  0.00000000E+00
  0.00000000E+00  0.00000000E+00  0.00000000E+00
  0.00000000E+00  0.00000000E+00  0.00000000E+00
  0.00000000E+00  0.00000000E+00  0.00000000E+00
  0.00000000E+00  0.00000000E+00  0.00000000E+00
  0.00000000E+00  0.00000000E+00  0.00000000E+00
  0.00000000E+00  0.00000000E+00  0.00000000E+00
  0.00000000E+00  0.00000000E+00  0.00000000E+00
  0.00000000E+00  0.00000000E+00  0.00000000E+00
  0.00000000E+00  0.00000000E+00  0.00000000E+00
  0.00000000E+00  0.00000000E+00  0.00000000E+00
  0.00000000E+00  0.00000000E+00  0.00000000E+00
  0.00000000E+00  0.00000000E+00  0.00000000E+00
  0.00000000E+00  0.00000000E+00  0.00000000E+00
  0.00000000E+00  0.00000000E+00  0.00000000E+00
  0.00000000E+00  0.00000000E+00  0.00000000E+00
  0.00000000E+00  0.00000000E+00  0.00000000E+00
  0.00000000E+00  0.00000000E+00  0.00000000E+00
  0.00000000E+00  0.00000000E+00  0.00000000E+00
  0.00000000E+00  0.00000000E+00  0.00000000E+00
  0.00000000E+00  0.00000000E+00  0.00000000E+00
  0.00000000E+00  0.00000000E+00  0.00000000E+00
  0.00000000E+00  0.00000000E+00  0.00000000E+00
  0.00000000E+00  0.00000000E+00  0.00000000E+00
  0.00000000E+00  0.00000000E+00  0.00000000E+00
  0.00000000E+00  0.00000000E+00  0.00000000E+00
  0.00000000E+00  0.00000000E+00  0.00000000E+00
  0.00000000E+00  0.00000000E+00  0.00000000E+00
  0.00000000E+00  0.00000000E+00  0.00000000E+00
  0.00000000E+00  0.00000000E+00  0.00000000E+00
  0.00000000E+00  0.00000000E+00  0.00000000E+00
  0.00000000E+00  0.00000000E+00  0.00000000E+00
  0.00000000E+00  0.00000000E+00  0.00000000E+00
  0.00000000E+00  0.00000000E+00  0.00000000E+00
  0.00000000E+00  0.00000000E+00  0.00000000E+00
  0.00000000E+00  0.00000000E+00  0.00000000E+00
  0.00000000E+00  0.00000000E+00  0.00000000E+00
  0.00000000E+00  0.00000000E+00  0.00000000E+00
  0.00000000E+00  0.00000000E+00  0.00000000E+00
  0.00000000E+00  0.00000000E+00  0.00000000E+00
  0.00000000E+00  0.00000000E+00  0.00000000E+00
  0.00000000E+00  0.00000000E+00  0.00000000E+00
  0.00000000E+00  0.00000000E+00  0.00000000E+00
  0.00000000E+00  0.00000000E+00  0.00000000E+00
  0.00000000E+00  0.00000000E+00  0.00000000E+00
  0.00000000E+00  0.00000000E+00  0.00000000E+00
  0.00000000E+00  0.00000000E+00  0.00000000E+00
  0.00000000E+00  0.00000000E+00  0.00000000E+00
