Hf18 H1 C9 O18                          
   1.00000000000000     
     9.7464817893106677    0.0043965000758068    0.0000125454806733
    -4.8694331199632108    8.4343926415113977   -0.0000126310131966
     0.0000348485574563   -0.0000203941697408   26.5619165340272794
   C    O    Hf   H 
     9    18    18     1
Direct
  0.3350555590502394  0.3344363849505316  0.5008059819911335
  0.3338558167330614  0.6670830506574277  0.5007307467424936
  0.3338791149411659  0.0005997180797016  0.5007454438827863
  0.6664113136044418  0.3344372310515099  0.5009808666293953
  0.6664117290558841  0.6657877695754600  0.5009742060570384
  0.6670327621881974  0.0004021521221397  0.5004812274422633
  0.0007050547531903  0.3340256883989908  0.5005074602874308
  0.0001820392211089  0.6669832310025138  0.5007883447579727
  0.0006990617977805  0.0004685319924250  0.5005194256542891
  0.1115883737363519  0.2226868615181900  0.4133059322796521
  0.1115055113068213  0.5567228634502245  0.4134624587642720
  0.1115223636850806  0.8886371666221902  0.4134629889886891
  0.4447980151654670  0.2225385163893888  0.4131028134825495
  0.4448077318396337  0.5560726043855039  0.4131044572144057
  0.4438878066636053  0.8888684260096815  0.4135879004326676
  0.7778851009992062  0.2230398581118933  0.4134364870226164
  0.7782698401994884  0.5560500985761339  0.4132053158209073
  0.7779134740915185  0.8886748313117693  0.4134374298977784
  0.2239506410116370  0.1124963170617971  0.5878893704262813
  0.2239350436445114  0.4452098521141162  0.5878938715177954
  0.2229079699085810  0.7783344990200831  0.5882249185341913
  0.5564119452485687  0.1125080484680293  0.5879419515890459
  0.5564248956962975  0.4451310502297016  0.5952989616358477
  0.5563973783874525  0.7776722353629050  0.5879506343781420
  0.8897388833380772  0.1117554547882365  0.5876686658300818
  0.8890357235848807  0.4452859986523991  0.5878750891760575
  0.8890383425260853  0.7774886719345769  0.5878817273785431
  0.2229463688159982  0.1118124058936547  0.4484670050272515
  0.2229629958941894  0.4448840946990056  0.4484621481245695
  0.2234796924550927  0.7786002604419541  0.4496441805469003
  0.5569443846663358  0.1115617569305895  0.4484009985621804
  0.5563919663793667  0.4450868090100805  0.4490264896536956
  0.5569379835029842  0.7791171033557539  0.4484208168470201
  0.8902125674660843  0.1119617690499137  0.4493271636773532
  0.8904939631981745  0.4448824554268931  0.4482464966043745
  0.8904772281354973  0.7793364721862625  0.4482651177829988
  0.1113545618119499  0.2225930283200657  0.5521404203477567
  0.1111099157312609  0.5554120215348323  0.5526768339066090
  0.1111116038310935  0.8895124781399283  0.5526897610524435
  0.4408051184885233  0.2148839621124885  0.5495300821954803
  0.4449924555794770  0.8894015153799121  0.5526185483795228
  0.7777183595451311  0.2225361731320123  0.5521856503664508
  0.7857590477557130  0.5597846436810749  0.5494343788298039
  0.7777158426378507  0.8890011168238556  0.5521900472327841
  0.4408018835589363  0.5597287068034468  0.5495371723998984
  0.5573524865821726  0.4456643875208131  0.6319823119374279
 
  0.00000000E+00  0.00000000E+00  0.00000000E+00
  0.00000000E+00  0.00000000E+00  0.00000000E+00
  0.00000000E+00  0.00000000E+00  0.00000000E+00
  0.00000000E+00  0.00000000E+00  0.00000000E+00
  0.00000000E+00  0.00000000E+00  0.00000000E+00
  0.00000000E+00  0.00000000E+00  0.00000000E+00
  0.00000000E+00  0.00000000E+00  0.00000000E+00
  0.00000000E+00  0.00000000E+00  0.00000000E+00
  0.00000000E+00  0.00000000E+00  0.00000000E+00
  0.00000000E+00  0.00000000E+00  0.00000000E+00
  0.00000000E+00  0.00000000E+00  0.00000000E+00
  0.00000000E+00  0.00000000E+00  0.00000000E+00
  0.00000000E+00  0.00000000E+00  0.00000000E+00
  0.00000000E+00  0.00000000E+00  0.00000000E+00
  0.00000000E+00  0.00000000E+00  0.00000000E+00
  0.00000000E+00  0.00000000E+00  0.00000000E+00
  0.00000000E+00  0.00000000E+00  0.00000000E+00
  0.00000000E+00  0.00000000E+00  0.00000000E+00
  0.00000000E+00  0.00000000E+00  0.00000000E+00
  0.00000000E+00  0.00000000E+00  0.00000000E+00
  0.00000000E+00  0.00000000E+00  0.00000000E+00
  0.00000000E+00  0.00000000E+00  0.00000000E+00
  0.00000000E+00  0.00000000E+00  0.00000000E+00
  0.00000000E+00  0.00000000E+00  0.00000000E+00
  0.00000000E+00  0.00000000E+00  0.00000000E+00
  0.00000000E+00  0.00000000E+00  0.00000000E+00
  0.00000000E+00  0.00000000E+00  0.00000000E+00
  0.00000000E+00  0.00000000E+00  0.00000000E+00
  0.00000000E+00  0.00000000E+00  0.00000000E+00
  0.00000000E+00  0.00000000E+00  0.00000000E+00
  0.00000000E+00  0.00000000E+00  0.00000000E+00
  0.00000000E+00  0.00000000E+00  0.00000000E+00
  0.00000000E+00  0.00000000E+00  0.00000000E+00
  0.00000000E+00  0.00000000E+00  0.00000000E+00
  0.00000000E+00  0.00000000E+00  0.00000000E+00
  0.00000000E+00  0.00000000E+00  0.00000000E+00
  0.00000000E+00  0.00000000E+00  0.00000000E+00
  0.00000000E+00  0.00000000E+00  0.00000000E+00
  0.00000000E+00  0.00000000E+00  0.00000000E+00
  0.00000000E+00  0.00000000E+00  0.00000000E+00
  0.00000000E+00  0.00000000E+00  0.00000000E+00
  0.00000000E+00  0.00000000E+00  0.00000000E+00
  0.00000000E+00  0.00000000E+00  0.00000000E+00
  0.00000000E+00  0.00000000E+00  0.00000000E+00
  0.00000000E+00  0.00000000E+00  0.00000000E+00
  0.00000000E+00  0.00000000E+00  0.00000000E+00
